c ren 1 -> 1
c ren 2 -> 2
c ren 3 -> 3
c ren 4 -> 4
c ren 5 -> 5
c ren 6 -> 6
c ren 7 -> 7
c ren 8 -> 8
c ren 9 -> 9
c ren 10 -> 10
c ren 11 -> 11
c ren 12 -> 12
c ren 13 -> 13
c ren 14 -> 14
c ren 15 -> 15
c ren 16 -> 16
c ren 17 -> 17
c ren 18 -> 18
c ren 19 -> 19
c ren 20 -> 20
c ren 21 -> 21
c ren 22 -> 22
c ren 23 -> 23
c ren 24 -> 24
c ren 27 -> 25
c ren 29 -> 26
c ren 33 -> 27
c ren 42 -> 28
c ren 43 -> 29
c ren 46 -> 30
c ren 49 -> 31
c ren 52 -> 32
c ren 56 -> 33
c ren 59 -> 34
c ren 62 -> 35
c ren 65 -> 36
p cnf 36 69
a 1 2 3 4 5 6 7 8 9 10 11 12 13 14 15 16 17 18 19 0
d 20 11 12 0
d 21 1 4 0
d 22 2 5 0
d 23 16 17 0
d 24 13 15 0
e 25 26 27 28 29 30 31 32 33 34 35 36 0
2 5 -7 -25 0
-2 -5 7 25 0
2 -5 7 -25 0
-2 5 -7 25 0
-2 5 7 -25 0
-2 -5 -7 -25 0
2 5 7 25 0
2 -5 -7 25 0
-1 4 26 0
1 -4 26 0
-1 -4 -26 0
1 4 -26 0
2 7 -8 -9 10 -25 -26 -27 -28 0
-2 -5 -8 -9 -10 -25 -26 -27 -28 0
5 7 -8 -9 10 -25 -26 -27 -28 0
-7 -8 -9 -10 -25 -26 -27 -28 0
-2 -5 -8 9 -10 -25 -26 27 -28 0
-3 6 27 0
3 -6 27 0
-3 -6 -27 0
3 6 -27 0
5 7 -8 9 10 -25 -26 27 -28 0
-7 -8 9 -10 -25 -26 27 -28 0
-2 -5 8 -9 -10 -25 26 -27 -28 0
2 7 -8 9 10 -25 -26 27 -28 0
5 8 -9 10 -25 26 -27 -28 0
2 8 -9 10 -25 26 -27 -28 0
2 17 34 0
2 8 9 10 -25 26 27 -28 0
5 8 9 10 -25 26 27 -28 0
25 28 0
5 17 34 0
-11 -22 29 0
11 22 29 0
6 -9 -10 -19 -23 28 -29 -30 -31 -32 -33 -34 -35 -36 0
-12 -21 30 0
12 21 30 0
-14 -27 31 0
14 27 31 0
-13 -14 32 0
13 14 32 0
3 -9 -10 -19 -23 28 -29 -30 -31 -32 -33 -34 -35 -36 0
-16 -21 -22 33 0
16 22 33 0
16 21 33 0
9 10 -19 -23 -24 28 -29 -30 -31 -32 -33 -34 -35 -36 0
-2 -5 8 9 -10 -25 26 27 -28 0
-2 -5 -17 34 0
-9 10 -19 -23 24 28 -29 -30 -31 -32 -33 -34 -35 -36 0
-15 -23 35 0
15 23 35 0
9 -10 -19 -23 24 28 -29 -30 -31 -32 -33 -34 -35 -36 0
-14 -18 36 0
14 18 36 0
-9 -10 -19 -23 -24 28 -29 -30 -31 -32 -33 -34 -35 -36 0
-7 8 -19 20 -23 28 -29 -30 -31 -32 -33 -34 -35 -36 0
-7 -8 19 -20 23 28 -29 -30 -31 -32 -33 -34 -35 -36 0
7 -8 -19 20 -23 28 -29 -30 -31 -32 -33 -34 -35 -36 0
-7 -8 -19 -20 -23 28 -29 -30 -31 -32 -33 -34 -35 -36 0
7 8 19 -20 23 28 -29 -30 -31 -32 -33 -34 -35 -36 0
7 -8 19 20 23 28 -29 -30 -31 -32 -33 -34 -35 -36 0
-7 8 19 20 23 28 -29 -30 -31 -32 -33 -34 -35 -36 0
-9 -10 19 23 -24 28 -29 -30 -31 -32 -33 -34 -35 -36 0
3 -9 -10 19 23 28 -29 -30 -31 -32 -33 -34 -35 -36 0
9 -10 19 23 24 28 -29 -30 -31 -32 -33 -34 -35 -36 0
9 10 19 23 -24 28 -29 -30 -31 -32 -33 -34 -35 -36 0
-9 10 19 23 24 28 -29 -30 -31 -32 -33 -34 -35 -36 0
7 8 -19 -20 -23 28 -29 -30 -31 -32 -33 -34 -35 -36 0
6 -9 -10 19 23 28 -29 -30 -31 -32 -33 -34 -35 -36 0
